NAME /Users/henri/Research/solvers/instances/idol-instances/robust/collection/spp_dkp_Lefebvre_et_al_2026/shortest_path_10_2/uncertainty_sets/discrete_knapsack
ROWS
 N  OBJ
 L  primal_lower
COLUMNS
    MARKER    'MARKER'                 'INTORG'
    y[0,1]     OBJ        0
    y[0,1]     primal_lower -3.84
    y[0,2]     OBJ        0
    y[0,2]     primal_lower -0.48
    y[0,3]     OBJ        0
    y[0,3]     primal_lower -3.42
    y[0,4]     OBJ        0
    y[0,4]     primal_lower -1.66
    y[0,5]     OBJ        0
    y[0,5]     primal_lower -1.65
    y[0,6]     OBJ        0
    y[0,6]     primal_lower -2.8
    y[0,7]     OBJ        0
    y[0,7]     primal_lower -1.81
    y[0,8]     OBJ        0
    y[0,8]     primal_lower -1.88
    y[0,9]     OBJ        0
    y[0,9]     primal_lower -2.34
    y[1,0]     OBJ        0
    y[1,0]     primal_lower -3.26
    y[1,3]     OBJ        0
    y[1,3]     primal_lower -4.42
    y[1,8]     OBJ        0
    y[1,8]     primal_lower -2.1
    y[1,9]     OBJ        0
    y[1,9]     primal_lower -1.97
    y[2,0]     OBJ        0
    y[2,0]     primal_lower -0.52
    y[2,3]     OBJ        0
    y[2,3]     primal_lower -1
    y[2,4]     OBJ        0
    y[2,4]     primal_lower -4.4
    y[2,5]     OBJ        0
    y[2,5]     primal_lower -4.34
    y[2,6]     OBJ        0
    y[2,6]     primal_lower -4.05
    y[2,7]     OBJ        0
    y[2,7]     primal_lower -2.97
    y[2,9]     OBJ        0
    y[2,9]     primal_lower -0.98
    y[3,0]     OBJ        0
    y[3,0]     primal_lower -2.93
    y[3,1]     OBJ        0
    y[3,1]     primal_lower -0.64
    y[3,2]     OBJ        0
    y[3,2]     primal_lower -2.11
    y[3,4]     OBJ        0
    y[3,4]     primal_lower -4.02
    y[3,5]     OBJ        0
    y[3,5]     primal_lower -1.19
    y[3,6]     OBJ        0
    y[3,6]     primal_lower -3.06
    y[3,7]     OBJ        0
    y[3,7]     primal_lower -3.97
    y[3,8]     OBJ        0
    y[3,8]     primal_lower -0.68
    y[3,9]     OBJ        0
    y[3,9]     primal_lower -2.59
    y[4,0]     OBJ        0
    y[4,0]     primal_lower -0.73
    y[4,2]     OBJ        0
    y[4,2]     primal_lower -0.79
    y[4,3]     OBJ        0
    y[4,3]     primal_lower -0.48
    y[4,5]     OBJ        0
    y[4,5]     primal_lower -0.93
    y[4,6]     OBJ        0
    y[4,6]     primal_lower -2.09
    y[4,7]     OBJ        0
    y[4,7]     primal_lower -3.65
    y[4,9]     OBJ        0
    y[4,9]     primal_lower -4.56
    y[5,0]     OBJ        0
    y[5,0]     primal_lower -3.7
    y[5,2]     OBJ        0
    y[5,2]     primal_lower -1.74
    y[5,3]     OBJ        0
    y[5,3]     primal_lower -2.37
    y[5,4]     OBJ        0
    y[5,4]     primal_lower -0.27
    y[5,6]     OBJ        0
    y[5,6]     primal_lower -3.27
    y[5,7]     OBJ        0
    y[5,7]     primal_lower -0.33
    y[5,9]     OBJ        0
    y[5,9]     primal_lower -4.06
    y[6,0]     OBJ        0
    y[6,0]     primal_lower -3.34
    y[6,2]     OBJ        0
    y[6,2]     primal_lower -3.83
    y[6,3]     OBJ        0
    y[6,3]     primal_lower -3.27
    y[6,4]     OBJ        0
    y[6,4]     primal_lower -3.21
    y[6,5]     OBJ        0
    y[6,5]     primal_lower -4.28
    y[6,7]     OBJ        0
    y[6,7]     primal_lower -4.05
    y[6,8]     OBJ        0
    y[6,8]     primal_lower -0.44
    y[6,9]     OBJ        0
    y[6,9]     primal_lower -2.1
    y[7,0]     OBJ        0
    y[7,0]     primal_lower -2.27
    y[7,2]     OBJ        0
    y[7,2]     primal_lower -0.5
    y[7,3]     OBJ        0
    y[7,3]     primal_lower -0.71
    y[7,4]     OBJ        0
    y[7,4]     primal_lower -4.52
    y[7,5]     OBJ        0
    y[7,5]     primal_lower -1.25
    y[7,6]     OBJ        0
    y[7,6]     primal_lower -4.12
    y[7,9]     OBJ        0
    y[7,9]     primal_lower -0.76
    y[8,0]     OBJ        0
    y[8,0]     primal_lower -0.61
    y[8,1]     OBJ        0
    y[8,1]     primal_lower -1.46
    y[8,3]     OBJ        0
    y[8,3]     primal_lower -1.41
    y[8,6]     OBJ        0
    y[8,6]     primal_lower -1.94
    y[8,9]     OBJ        0
    y[8,9]     primal_lower -1.52
    y[9,0]     OBJ        0
    y[9,0]     primal_lower -2.61
    y[9,1]     OBJ        0
    y[9,1]     primal_lower -0.44
    y[9,2]     OBJ        0
    y[9,2]     primal_lower -3.67
    y[9,3]     OBJ        0
    y[9,3]     primal_lower -1.24
    y[9,4]     OBJ        0
    y[9,4]     primal_lower -4.19
    y[9,5]     OBJ        0
    y[9,5]     primal_lower -4.15
    y[9,6]     OBJ        0
    y[9,6]     primal_lower -0.07
    y[9,7]     OBJ        0
    y[9,7]     primal_lower -3.92
    y[9,8]     OBJ        0
    y[9,8]     primal_lower -3.11
    u[0,1]     OBJ        0
    u[0,1]     primal_lower 77
    u[0,2]     OBJ        0
    u[0,2]     primal_lower 11
    u[0,3]     OBJ        0
    u[0,3]     primal_lower 77
    u[0,4]     OBJ        0
    u[0,4]     primal_lower 60
    u[0,5]     OBJ        0
    u[0,5]     primal_lower 43
    u[0,6]     OBJ        0
    u[0,6]     primal_lower 49
    u[0,7]     OBJ        0
    u[0,7]     primal_lower 76
    u[0,8]     OBJ        0
    u[0,8]     primal_lower 61
    u[0,9]     OBJ        0
    u[0,9]     primal_lower 89
    u[1,0]     OBJ        0
    u[1,0]     primal_lower 51
    u[1,3]     OBJ        0
    u[1,3]     primal_lower 39
    u[1,8]     OBJ        0
    u[1,8]     primal_lower 58
    u[1,9]     OBJ        0
    u[1,9]     primal_lower 30
    u[2,0]     OBJ        0
    u[2,0]     primal_lower 7
    u[2,3]     OBJ        0
    u[2,3]     primal_lower 29
    u[2,4]     OBJ        0
    u[2,4]     primal_lower 17
    u[2,5]     OBJ        0
    u[2,5]     primal_lower 74
    u[2,6]     OBJ        0
    u[2,6]     primal_lower 56
    u[2,7]     OBJ        0
    u[2,7]     primal_lower 11
    u[2,9]     OBJ        0
    u[2,9]     primal_lower 28
    u[3,0]     OBJ        0
    u[3,0]     primal_lower 57
    u[3,1]     OBJ        0
    u[3,1]     primal_lower 88
    u[3,2]     OBJ        0
    u[3,2]     primal_lower 80
    u[3,4]     OBJ        0
    u[3,4]     primal_lower 100
    u[3,5]     OBJ        0
    u[3,5]     primal_lower 97
    u[3,6]     OBJ        0
    u[3,6]     primal_lower 84
    u[3,7]     OBJ        0
    u[3,7]     primal_lower 41
    u[3,8]     OBJ        0
    u[3,8]     primal_lower 51
    u[3,9]     OBJ        0
    u[3,9]     primal_lower 22
    u[4,0]     OBJ        0
    u[4,0]     primal_lower 96
    u[4,2]     OBJ        0
    u[4,2]     primal_lower 26
    u[4,3]     OBJ        0
    u[4,3]     primal_lower 29
    u[4,5]     OBJ        0
    u[4,5]     primal_lower 54
    u[4,6]     OBJ        0
    u[4,6]     primal_lower 95
    u[4,7]     OBJ        0
    u[4,7]     primal_lower 9
    u[4,9]     OBJ        0
    u[4,9]     primal_lower 99
    u[5,0]     OBJ        0
    u[5,0]     primal_lower 18
    u[5,2]     OBJ        0
    u[5,2]     primal_lower 64
    u[5,3]     OBJ        0
    u[5,3]     primal_lower 3
    u[5,4]     OBJ        0
    u[5,4]     primal_lower 51
    u[5,6]     OBJ        0
    u[5,6]     primal_lower 6
    u[5,7]     OBJ        0
    u[5,7]     primal_lower 3
    u[5,9]     OBJ        0
    u[5,9]     primal_lower 1
    u[6,0]     OBJ        0
    u[6,0]     primal_lower 48
    u[6,2]     OBJ        0
    u[6,2]     primal_lower 85
    u[6,3]     OBJ        0
    u[6,3]     primal_lower 69
    u[6,4]     OBJ        0
    u[6,4]     primal_lower 96
    u[6,5]     OBJ        0
    u[6,5]     primal_lower 77
    u[6,7]     OBJ        0
    u[6,7]     primal_lower 2
    u[6,8]     OBJ        0
    u[6,8]     primal_lower 2
    u[6,9]     OBJ        0
    u[6,9]     primal_lower 33
    u[7,0]     OBJ        0
    u[7,0]     primal_lower 44
    u[7,2]     OBJ        0
    u[7,2]     primal_lower 67
    u[7,3]     OBJ        0
    u[7,3]     primal_lower 97
    u[7,4]     OBJ        0
    u[7,4]     primal_lower 9
    u[7,5]     OBJ        0
    u[7,5]     primal_lower 49
    u[7,6]     OBJ        0
    u[7,6]     primal_lower 91
    u[7,9]     OBJ        0
    u[7,9]     primal_lower 83
    u[8,0]     OBJ        0
    u[8,0]     primal_lower 16
    u[8,1]     OBJ        0
    u[8,1]     primal_lower 46
    u[8,3]     OBJ        0
    u[8,3]     primal_lower 83
    u[8,6]     OBJ        0
    u[8,6]     primal_lower 18
    u[8,9]     OBJ        0
    u[8,9]     primal_lower 85
    u[9,0]     OBJ        0
    u[9,0]     primal_lower 41
    u[9,1]     OBJ        0
    u[9,1]     primal_lower 5
    u[9,2]     OBJ        0
    u[9,2]     primal_lower 93
    u[9,3]     OBJ        0
    u[9,3]     primal_lower 82
    u[9,4]     OBJ        0
    u[9,4]     primal_lower 84
    u[9,5]     OBJ        0
    u[9,5]     primal_lower 57
    u[9,6]     OBJ        0
    u[9,6]     primal_lower 5
    u[9,7]     OBJ        0
    u[9,7]     primal_lower 54
    u[9,8]     OBJ        0
    u[9,8]     primal_lower 6
    MARKER    'MARKER'                 'INTEND'
RHS
    RHS       primal_lower 331
BOUNDS
 LI BND       y[0,1]     0
 UI BND       y[0,1]     1
 LI BND       y[0,2]     0
 UI BND       y[0,2]     1
 LI BND       y[0,3]     0
 UI BND       y[0,3]     1
 LI BND       y[0,4]     0
 UI BND       y[0,4]     1
 LI BND       y[0,5]     0
 UI BND       y[0,5]     1
 LI BND       y[0,6]     0
 UI BND       y[0,6]     1
 LI BND       y[0,7]     0
 UI BND       y[0,7]     1
 LI BND       y[0,8]     0
 UI BND       y[0,8]     1
 LI BND       y[0,9]     0
 UI BND       y[0,9]     1
 LI BND       y[1,0]     0
 UI BND       y[1,0]     1
 LI BND       y[1,3]     0
 UI BND       y[1,3]     1
 LI BND       y[1,8]     0
 UI BND       y[1,8]     1
 LI BND       y[1,9]     0
 UI BND       y[1,9]     1
 LI BND       y[2,0]     0
 UI BND       y[2,0]     1
 LI BND       y[2,3]     0
 UI BND       y[2,3]     1
 LI BND       y[2,4]     0
 UI BND       y[2,4]     1
 LI BND       y[2,5]     0
 UI BND       y[2,5]     1
 LI BND       y[2,6]     0
 UI BND       y[2,6]     1
 LI BND       y[2,7]     0
 UI BND       y[2,7]     1
 LI BND       y[2,9]     0
 UI BND       y[2,9]     1
 LI BND       y[3,0]     0
 UI BND       y[3,0]     1
 LI BND       y[3,1]     0
 UI BND       y[3,1]     1
 LI BND       y[3,2]     0
 UI BND       y[3,2]     1
 LI BND       y[3,4]     0
 UI BND       y[3,4]     1
 LI BND       y[3,5]     0
 UI BND       y[3,5]     1
 LI BND       y[3,6]     0
 UI BND       y[3,6]     1
 LI BND       y[3,7]     0
 UI BND       y[3,7]     1
 LI BND       y[3,8]     0
 UI BND       y[3,8]     1
 LI BND       y[3,9]     0
 UI BND       y[3,9]     1
 LI BND       y[4,0]     0
 UI BND       y[4,0]     1
 LI BND       y[4,2]     0
 UI BND       y[4,2]     1
 LI BND       y[4,3]     0
 UI BND       y[4,3]     1
 LI BND       y[4,5]     0
 UI BND       y[4,5]     1
 LI BND       y[4,6]     0
 UI BND       y[4,6]     1
 LI BND       y[4,7]     0
 UI BND       y[4,7]     1
 LI BND       y[4,9]     0
 UI BND       y[4,9]     1
 LI BND       y[5,0]     0
 UI BND       y[5,0]     1
 LI BND       y[5,2]     0
 UI BND       y[5,2]     1
 LI BND       y[5,3]     0
 UI BND       y[5,3]     1
 LI BND       y[5,4]     0
 UI BND       y[5,4]     1
 LI BND       y[5,6]     0
 UI BND       y[5,6]     1
 LI BND       y[5,7]     0
 UI BND       y[5,7]     1
 LI BND       y[5,9]     0
 UI BND       y[5,9]     1
 LI BND       y[6,0]     0
 UI BND       y[6,0]     1
 LI BND       y[6,2]     0
 UI BND       y[6,2]     1
 LI BND       y[6,3]     0
 UI BND       y[6,3]     1
 LI BND       y[6,4]     0
 UI BND       y[6,4]     1
 LI BND       y[6,5]     0
 UI BND       y[6,5]     1
 LI BND       y[6,7]     0
 UI BND       y[6,7]     1
 LI BND       y[6,8]     0
 UI BND       y[6,8]     1
 LI BND       y[6,9]     0
 UI BND       y[6,9]     1
 LI BND       y[7,0]     0
 UI BND       y[7,0]     1
 LI BND       y[7,2]     0
 UI BND       y[7,2]     1
 LI BND       y[7,3]     0
 UI BND       y[7,3]     1
 LI BND       y[7,4]     0
 UI BND       y[7,4]     1
 LI BND       y[7,5]     0
 UI BND       y[7,5]     1
 LI BND       y[7,6]     0
 UI BND       y[7,6]     1
 LI BND       y[7,9]     0
 UI BND       y[7,9]     1
 LI BND       y[8,0]     0
 UI BND       y[8,0]     1
 LI BND       y[8,1]     0
 UI BND       y[8,1]     1
 LI BND       y[8,3]     0
 UI BND       y[8,3]     1
 LI BND       y[8,6]     0
 UI BND       y[8,6]     1
 LI BND       y[8,9]     0
 UI BND       y[8,9]     1
 LI BND       y[9,0]     0
 UI BND       y[9,0]     1
 LI BND       y[9,1]     0
 UI BND       y[9,1]     1
 LI BND       y[9,2]     0
 UI BND       y[9,2]     1
 LI BND       y[9,3]     0
 UI BND       y[9,3]     1
 LI BND       y[9,4]     0
 UI BND       y[9,4]     1
 LI BND       y[9,5]     0
 UI BND       y[9,5]     1
 LI BND       y[9,6]     0
 UI BND       y[9,6]     1
 LI BND       y[9,7]     0
 UI BND       y[9,7]     1
 LI BND       y[9,8]     0
 UI BND       y[9,8]     1
 LI BND       u[0,1]     0
 UI BND       u[0,1]     1
 LI BND       u[0,2]     0
 UI BND       u[0,2]     1
 LI BND       u[0,3]     0
 UI BND       u[0,3]     1
 LI BND       u[0,4]     0
 UI BND       u[0,4]     1
 LI BND       u[0,5]     0
 UI BND       u[0,5]     1
 LI BND       u[0,6]     0
 UI BND       u[0,6]     1
 LI BND       u[0,7]     0
 UI BND       u[0,7]     1
 LI BND       u[0,8]     0
 UI BND       u[0,8]     1
 LI BND       u[0,9]     0
 UI BND       u[0,9]     1
 LI BND       u[1,0]     0
 UI BND       u[1,0]     1
 LI BND       u[1,3]     0
 UI BND       u[1,3]     1
 LI BND       u[1,8]     0
 UI BND       u[1,8]     1
 LI BND       u[1,9]     0
 UI BND       u[1,9]     1
 LI BND       u[2,0]     0
 UI BND       u[2,0]     1
 LI BND       u[2,3]     0
 UI BND       u[2,3]     1
 LI BND       u[2,4]     0
 UI BND       u[2,4]     1
 LI BND       u[2,5]     0
 UI BND       u[2,5]     1
 LI BND       u[2,6]     0
 UI BND       u[2,6]     1
 LI BND       u[2,7]     0
 UI BND       u[2,7]     1
 LI BND       u[2,9]     0
 UI BND       u[2,9]     1
 LI BND       u[3,0]     0
 UI BND       u[3,0]     1
 LI BND       u[3,1]     0
 UI BND       u[3,1]     1
 LI BND       u[3,2]     0
 UI BND       u[3,2]     1
 LI BND       u[3,4]     0
 UI BND       u[3,4]     1
 LI BND       u[3,5]     0
 UI BND       u[3,5]     1
 LI BND       u[3,6]     0
 UI BND       u[3,6]     1
 LI BND       u[3,7]     0
 UI BND       u[3,7]     1
 LI BND       u[3,8]     0
 UI BND       u[3,8]     1
 LI BND       u[3,9]     0
 UI BND       u[3,9]     1
 LI BND       u[4,0]     0
 UI BND       u[4,0]     1
 LI BND       u[4,2]     0
 UI BND       u[4,2]     1
 LI BND       u[4,3]     0
 UI BND       u[4,3]     1
 LI BND       u[4,5]     0
 UI BND       u[4,5]     1
 LI BND       u[4,6]     0
 UI BND       u[4,6]     1
 LI BND       u[4,7]     0
 UI BND       u[4,7]     1
 LI BND       u[4,9]     0
 UI BND       u[4,9]     1
 LI BND       u[5,0]     0
 UI BND       u[5,0]     1
 LI BND       u[5,2]     0
 UI BND       u[5,2]     1
 LI BND       u[5,3]     0
 UI BND       u[5,3]     1
 LI BND       u[5,4]     0
 UI BND       u[5,4]     1
 LI BND       u[5,6]     0
 UI BND       u[5,6]     1
 LI BND       u[5,7]     0
 UI BND       u[5,7]     1
 LI BND       u[5,9]     0
 UI BND       u[5,9]     1
 LI BND       u[6,0]     0
 UI BND       u[6,0]     1
 LI BND       u[6,2]     0
 UI BND       u[6,2]     1
 LI BND       u[6,3]     0
 UI BND       u[6,3]     1
 LI BND       u[6,4]     0
 UI BND       u[6,4]     1
 LI BND       u[6,5]     0
 UI BND       u[6,5]     1
 LI BND       u[6,7]     0
 UI BND       u[6,7]     1
 LI BND       u[6,8]     0
 UI BND       u[6,8]     1
 LI BND       u[6,9]     0
 UI BND       u[6,9]     1
 LI BND       u[7,0]     0
 UI BND       u[7,0]     1
 LI BND       u[7,2]     0
 UI BND       u[7,2]     1
 LI BND       u[7,3]     0
 UI BND       u[7,3]     1
 LI BND       u[7,4]     0
 UI BND       u[7,4]     1
 LI BND       u[7,5]     0
 UI BND       u[7,5]     1
 LI BND       u[7,6]     0
 UI BND       u[7,6]     1
 LI BND       u[7,9]     0
 UI BND       u[7,9]     1
 LI BND       u[8,0]     0
 UI BND       u[8,0]     1
 LI BND       u[8,1]     0
 UI BND       u[8,1]     1
 LI BND       u[8,3]     0
 UI BND       u[8,3]     1
 LI BND       u[8,6]     0
 UI BND       u[8,6]     1
 LI BND       u[8,9]     0
 UI BND       u[8,9]     1
 LI BND       u[9,0]     0
 UI BND       u[9,0]     1
 LI BND       u[9,1]     0
 UI BND       u[9,1]     1
 LI BND       u[9,2]     0
 UI BND       u[9,2]     1
 LI BND       u[9,3]     0
 UI BND       u[9,3]     1
 LI BND       u[9,4]     0
 UI BND       u[9,4]     1
 LI BND       u[9,5]     0
 UI BND       u[9,5]     1
 LI BND       u[9,6]     0
 UI BND       u[9,6]     1
 LI BND       u[9,7]     0
 UI BND       u[9,7]     1
 LI BND       u[9,8]     0
 UI BND       u[9,8]     1
ENDATA
